data;

param n:=30;
param p:=4;
param r:=[1] 0 [2] 4 [3] 4 [4] 6 [5] 1 [6] 19 [7] 15 [8] 20 [9] 28 [10] 9 [11] 28 [12] 35 [13] 2 [14] 40 [15] 34 [16] 56 [17] 0 [18] 63 [19] 56 [20] 6 [21] 75 [22] 6 [23] 62 [24] 67 [25] 27 [26] 56 [27] 99 [28] 4 [29] 59 [30] 14 ;
param w:=[1] 62 [2] 18 [3] 20 [4] 73 [5] 3 [6] 14 [7] 97 [8] 39 [9] 73 [10] 85 [11] 63 [12] 2 [13] 5 [14] 19 [15] 52 [16] 100 [17] 95 [18] 98 [19] 16 [20] 13 [21] 85 [22] 96 [23] 48 [24] 22 [25] 85 [26] 74 [27] 100 [28] 73 [29] 83 [30] 38 ;

end;
